1 100 405
1 2 3 0 1 1 1 3 1 0
4
3 2 3 6
0 35.0 35.0 0.0 0.0 0 230
2 41.0 49.0 10.0 10.0 161 171 52 0 1 0 0 0 0 1 1 0 0
3 35.0 17.0 10.0 7.0 50 60 28 0 0 0 0 0 0 1 0 0 0
4 55.0 45.0 10.0 13.0 116 126 19 0 0 1 0 1 0 0 0 1 0
5 55.0 20.0 10.0 19.0 149 159 77 0 1 0 0 0 0 1 0 0 0
6 15.0 30.0 10.0 26.0 34 44 64 0 0 1 0 0 0 0 0 0 0
7 25.0 30.0 10.0 3.0 99 109 45 0 0 0 0 0 0 0 0 1 0
8 20.0 50.0 10.0 5.0 81 91 89 0 0 0 0 0 0 1 0 0 0
9 10.0 43.0 10.0 9.0 95 105 65 0 0 0 0 0 0 0 0 1 0
10 55.0 60.0 10.0 16.0 97 107 61 0 0 0 0 0 0 0 1 0 0
11 30.0 60.0 10.0 16.0 124 134 33 0 0 0 0 0 1 0 0 0 0
12 20.0 65.0 10.0 12.0 67 77 12 0 0 0 1 0 1 1 1 0 0
13 50.0 35.0 10.0 19.0 63 73 99 0 0 0 0 0 0 0 1 1 0
14 30.0 25.0 10.0 23.0 159 169 61 0 0 0 0 0 0 0 1 0 0
15 15.0 10.0 10.0 20.0 32 42 8 0 0 0 0 1 0 1 0 0 0
16 30.0 5.0 10.0 8.0 61 71 7 0 0 0 0 0 1 0 0 0 0
17 10.0 20.0 10.0 19.0 75 85 88 0 1 0 0 0 0 0 0 0 0
18 5.0 30.0 10.0 2.0 157 167 83 1 1 0 0 0 1 0 0 0 0
19 20.0 40.0 10.0 12.0 87 97 62 0 0 0 0 0 0 0 0 0 1
20 15.0 60.0 10.0 17.0 76 86 68 0 0 0 0 0 1 0 0 0 1
21 45.0 65.0 10.0 9.0 126 136 25 0 0 1 0 0 0 0 0 1 0
22 45.0 20.0 10.0 11.0 62 72 76 0 0 0 1 0 0 0 0 1 0
23 45.0 10.0 10.0 18.0 97 107 4 0 1 0 0 0 0 0 0 0 0
24 55.0 5.0 10.0 29.0 68 78 72 0 0 0 0 1 1 0 0 1 0
25 65.0 35.0 10.0 3.0 153 163 33 0 0 0 0 1 0 1 0 1 0
26 65.0 20.0 10.0 6.0 172 182 95 0 1 1 1 0 0 0 0 1 1
27 45.0 30.0 10.0 17.0 132 142 74 0 1 0 0 0 0 0 0 0 0
28 35.0 40.0 10.0 16.0 37 47 95 1 0 0 0 0 1 0 0 0 0
29 41.0 37.0 10.0 16.0 39 49 43 0 0 1 0 0 0 0 1 0 0
30 64.0 42.0 10.0 9.0 63 73 2 0 0 0 0 0 0 0 1 0 0
31 40.0 60.0 10.0 21.0 71 81 8 0 0 0 0 1 0 0 0 0 0
32 31.0 52.0 10.0 27.0 50 60 68 0 0 1 0 0 0 0 1 1 0
33 35.0 69.0 10.0 23.0 141 151 56 0 0 0 0 0 1 0 0 0 0
34 53.0 52.0 10.0 11.0 37 47 99 1 1 0 0 0 0 0 0 0 0
35 65.0 55.0 10.0 14.0 117 127 50 1 0 0 0 0 0 0 0 0 1
36 63.0 65.0 10.0 8.0 143 153 20 0 0 1 0 0 0 0 0 1 0
37 2.0 60.0 10.0 5.0 41 51 80 0 1 0 0 0 0 1 0 0 0
38 20.0 20.0 10.0 8.0 134 144 36 0 1 1 1 1 0 0 0 0 0
39 5.0 5.0 10.0 16.0 83 93 8 0 0 1 0 0 0 0 0 0 0
40 60.0 12.0 10.0 31.0 44 54 74 1 0 0 0 0 0 0 0 0 0
41 40.0 25.0 10.0 9.0 85 95 96 1 0 1 1 0 0 0 0 0 0
42 42.0 7.0 10.0 5.0 97 107 8 1 0 0 0 0 0 0 0 0 0
43 24.0 12.0 10.0 5.0 31 41 90 0 0 0 1 0 1 0 0 0 1
44 23.0 3.0 10.0 7.0 132 142 44 0 1 0 0 0 0 1 0 0 1
45 11.0 14.0 10.0 18.0 69 79 19 0 0 0 0 0 0 1 0 0 0
46 6.0 38.0 10.0 16.0 32 42 74 0 0 0 1 1 1 0 0 0 0
47 2.0 48.0 10.0 1.0 117 127 77 0 0 1 1 0 1 0 0 1 0
48 8.0 56.0 10.0 27.0 51 61 17 0 0 1 0 0 0 0 0 0 0
49 13.0 52.0 10.0 36.0 165 175 89 0 0 1 0 0 0 1 0 0 1
50 6.0 68.0 10.0 30.0 108 118 55 0 0 0 0 0 0 0 1 0 0
51 47.0 47.0 10.0 13.0 124 134 35 0 0 0 0 0 1 0 0 1 0
52 49.0 58.0 10.0 10.0 88 98 14 0 1 0 0 1 0 0 0 1 0
53 27.0 43.0 10.0 9.0 52 62 50 0 0 0 0 0 0 1 0 0 0
54 37.0 31.0 10.0 14.0 95 105 6 0 0 0 0 0 1 0 0 0 0
55 57.0 29.0 10.0 18.0 140 150 41 0 0 0 0 1 0 0 1 0 0
56 63.0 23.0 10.0 2.0 136 146 12 0 0 0 1 0 0 0 0 1 0
57 53.0 12.0 10.0 6.0 130 140 3 0 0 0 0 1 0 1 1 1 0
58 32.0 12.0 10.0 7.0 101 111 39 0 0 0 1 1 0 0 0 0 0
59 36.0 26.0 10.0 18.0 200 210 0 0 0 0 0 0 1 0 0 0 0
60 21.0 24.0 10.0 28.0 18 28 3 0 0 0 0 0 1 0 0 0 0
61 17.0 34.0 10.0 3.0 162 172 49 0 0 0 0 0 1 0 0 0 0
62 12.0 24.0 10.0 13.0 76 86 86 0 0 0 0 0 0 0 1 0 0
63 24.0 58.0 10.0 19.0 58 68 38 0 0 1 1 1 0 0 0 0 0
64 27.0 69.0 10.0 10.0 34 44 53 0 0 0 0 0 0 0 0 0 1
65 15.0 77.0 10.0 9.0 73 83 23 1 1 0 0 0 0 0 0 0 0
66 62.0 77.0 10.0 20.0 51 61 88 0 0 0 0 0 1 0 0 0 0
67 49.0 73.0 10.0 25.0 127 137 87 0 0 0 0 0 0 1 1 1 0
68 67.0 5.0 10.0 25.0 83 93 99 0 0 0 0 1 0 1 0 0 0
69 56.0 39.0 10.0 36.0 142 152 29 0 0 0 1 0 0 0 0 0 0
70 37.0 47.0 10.0 6.0 50 60 16 0 0 0 0 0 0 0 0 0 1
71 37.0 56.0 10.0 5.0 182 192 96 0 0 0 0 0 1 0 0 0 0
72 57.0 68.0 10.0 15.0 77 87 81 0 0 1 0 1 1 0 0 0 0
73 47.0 16.0 10.0 25.0 35 45 63 0 0 1 0 0 1 0 1 0 0
74 44.0 17.0 10.0 9.0 78 88 54 0 1 1 0 0 0 1 1 1 1
75 46.0 13.0 10.0 8.0 149 159 71 0 0 0 0 1 0 0 0 0 0
76 49.0 11.0 10.0 18.0 69 79 46 0 0 0 0 0 1 0 0 1 1
77 49.0 42.0 10.0 13.0 73 83 11 1 0 1 0 1 0 0 0 0 1
78 53.0 43.0 10.0 14.0 179 189 28 0 1 1 0 1 0 0 1 0 0
79 61.0 52.0 10.0 3.0 96 106 93 0 0 0 1 0 1 0 0 0 1
80 57.0 48.0 10.0 23.0 92 102 34 0 0 1 0 0 1 0 0 0 0
81 56.0 37.0 10.0 6.0 182 192 84 1 0 0 0 0 0 0 0 0 0
82 55.0 54.0 10.0 26.0 94 104 95 0 0 0 0 0 0 0 1 0 0
83 15.0 47.0 10.0 16.0 55 65 25 1 0 0 0 0 0 0 1 1 0
84 14.0 37.0 10.0 11.0 44 54 7 0 0 0 0 1 0 1 0 0 0
85 11.0 31.0 10.0 7.0 101 111 0 0 0 0 0 0 1 0 0 0 0
86 16.0 22.0 10.0 41.0 91 101 28 1 0 0 0 0 0 0 1 0 0
87 4.0 18.0 10.0 35.0 94 104 79 1 0 0 0 0 1 1 0 0 0
88 28.0 18.0 10.0 26.0 93 103 75 0 0 0 1 0 0 0 0 0 0
89 26.0 52.0 10.0 9.0 74 84 29 0 1 0 0 1 1 0 0 0 0
90 26.0 35.0 10.0 15.0 176 186 80 0 0 0 0 0 1 0 1 1 0
91 31.0 67.0 10.0 3.0 95 105 37 0 1 0 0 0 0 0 0 0 1
92 15.0 19.0 10.0 1.0 160 170 0 0 0 0 0 0 0 1 0 0 0
93 22.0 22.0 10.0 2.0 18 28 4 1 1 0 0 1 0 0 0 0 0
94 18.0 24.0 10.0 22.0 188 198 43 1 0 0 0 0 0 1 0 0 0
95 26.0 27.0 10.0 27.0 100 110 29 1 0 0 0 0 1 0 0 0 0
96 25.0 24.0 10.0 20.0 39 49 51 0 0 0 0 0 1 0 0 0 0
97 22.0 27.0 10.0 11.0 135 145 2 0 0 0 0 0 1 0 0 0 0
98 25.0 21.0 10.0 12.0 133 143 76 0 1 0 0 0 1 0 0 0 0
99 19.0 21.0 10.0 10.0 58 68 0 0 0 0 1 0 0 0 1 0 0
100 20.0 26.0 10.0 9.0 83 93 47 0 0 0 0 0 1 0 0 0 0
101 18.0 18.0 10.0 17.0 185 195 76 1 0 0 1 1 0 0 0 0 1